c Generated map
c Size: 8 * 8, weights in range: 1 to 10, walls: False, with ratio 0.0
c dim 5 of 10
c
p sp 64 112
c graph contains 64 nodes and 112 arcs
c
a 1 9 3
a 9 1 3
a 1 2 2
a 2 1 2
a 2 10 9
a 10 2 9
a 2 3 5
a 3 2 5
a 3 11 3
a 11 3 3
a 3 4 9
a 4 3 9
a 4 12 10
a 12 4 10
a 4 5 3
a 5 4 3
a 5 13 7
a 13 5 7
a 5 6 9
a 6 5 9
a 6 14 1
a 14 6 1
a 6 7 3
a 7 6 3
a 7 15 7
a 15 7 7
a 7 8 7
a 8 7 7
a 8 16 1
a 16 8 1
a 9 17 1
a 17 9 1
a 9 10 7
a 10 9 7
a 10 18 6
a 18 10 6
a 10 11 4
a 11 10 4
a 11 19 2
a 19 11 2
a 11 12 2
a 12 11 2
a 12 20 6
a 20 12 6
a 12 13 2
a 13 12 2
a 13 21 2
a 21 13 2
a 13 14 3
a 14 13 3
a 14 22 7
a 22 14 7
a 14 15 5
a 15 14 5
a 15 23 6
a 23 15 6
a 15 16 4
a 16 15 4
a 16 24 8
a 24 16 8
a 17 25 1
a 25 17 1
a 17 18 8
a 18 17 8
a 18 26 2
a 26 18 2
a 18 19 5
a 19 18 5
a 19 27 1
a 27 19 1
a 19 20 10
a 20 19 10
a 20 28 3
a 28 20 3
a 20 21 3
a 21 20 3
a 21 29 2
a 29 21 2
a 21 22 1
a 22 21 1
a 22 30 7
a 30 22 7
a 22 23 2
a 23 22 2
a 23 31 5
a 31 23 5
a 23 24 9
a 24 23 9
a 24 32 8
a 32 24 8
a 25 33 5
a 33 25 5
a 25 26 6
a 26 25 6
a 26 34 5
a 34 26 5
a 26 27 9
a 27 26 9
a 27 35 5
a 35 27 5
a 27 28 9
a 28 27 9
a 28 36 7
a 36 28 7
a 28 29 10
a 29 28 10
a 29 37 7
a 37 29 7
a 29 30 10
a 30 29 10
a 30 38 2
a 38 30 2
a 30 31 9
a 31 30 9
a 31 39 3
a 39 31 3
a 31 32 4
a 32 31 4
a 32 40 2
a 40 32 2
a 33 41 4
a 41 33 4
a 33 34 5
a 34 33 5
a 34 42 6
a 42 34 6
a 34 35 1
a 35 34 1
a 35 43 5
a 43 35 5
a 35 36 1
a 36 35 1
a 36 44 6
a 44 36 6
a 36 37 3
a 37 36 3
a 37 45 1
a 45 37 1
a 37 38 6
a 38 37 6
a 38 46 4
a 46 38 4
a 38 39 8
a 39 38 8
a 39 47 6
a 47 39 6
a 39 40 1
a 40 39 1
a 40 48 10
a 48 40 10
a 41 49 7
a 49 41 7
a 41 42 4
a 42 41 4
a 42 50 4
a 50 42 4
a 42 43 5
a 43 42 5
a 43 51 10
a 51 43 10
a 43 44 8
a 44 43 8
a 44 52 9
a 52 44 9
a 44 45 10
a 45 44 10
a 45 53 5
a 53 45 5
a 45 46 10
a 46 45 10
a 46 54 2
a 54 46 2
a 46 47 2
a 47 46 2
a 47 55 1
a 55 47 1
a 47 48 6
a 48 47 6
a 48 56 1
a 56 48 1
a 49 57 1
a 57 49 1
a 49 50 3
a 50 49 3
a 50 58 9
a 58 50 9
a 50 51 3
a 51 50 3
a 51 59 8
a 59 51 8
a 51 52 9
a 52 51 9
a 52 60 7
a 60 52 7
a 52 53 2
a 53 52 2
a 53 61 5
a 61 53 5
a 53 54 7
a 54 53 7
a 54 62 5
a 62 54 5
a 54 55 3
a 55 54 3
a 55 63 8
a 63 55 8
a 55 56 5
a 56 55 5
a 56 64 6
a 64 56 6
a 57 58 5
a 58 57 5
a 58 59 3
a 59 58 3
a 59 60 1
a 60 59 1
a 60 61 7
a 61 60 7
a 61 62 9
a 62 61 9
a 62 63 3
a 63 62 3
a 63 64 7
a 64 63 7
